Route #1: 26 46 20 31 42 7 4
Route #2: 14 34 17 3 37
Route #3: 36 33 2 51 11 15
Route #4: 32 38 16 40 53 5 10 12
Route #5: 43 35 9 49 39 47
Route #6: 6 45 1 29
Route #7: 25 41 8 21
Route #8: 18 48 50 44 24 52 23
Route #9: 28 54 13 27 19 22 30
Cost 1074
Time 0.075455
